
******************************************************************************
This program contains Ipopt, a library for large-scale nonlinear optimization.
 Ipopt is released as open source code under the Eclipse Public License (EPL).
         For more information visit http://projects.coin-or.org/Ipopt

This version of Ipopt was compiled from source code available at
    https://github.com/IDAES/Ipopt as part of the Institute for the Design of
    Advanced Energy Systems Process Systems Engineering Framework (IDAES PSE
    Framework) Copyright (c) 2018-2019. See https://github.com/IDAES/idaes-pse.

This version of Ipopt was compiled using HSL, a collection of Fortran codes
    for large-scale scientific computation.  All technical papers, sales and
    publicity material resulting from use of the HSL codes within IPOPT must
    contain the following acknowledgement:
        HSL, a collection of Fortran codes for large-scale scientific
        computation. See http://www.hsl.rl.ac.uk.
******************************************************************************

This is Ipopt version 3.13.2, running with linear solver ma27.

Number of nonzeros in equality constraint Jacobian...:      928
Number of nonzeros in inequality constraint Jacobian.:        0
Number of nonzeros in Lagrangian Hessian.............:      806

Total number of variables............................:      403
                     variables with only lower bounds:      124
                variables with lower and upper bounds:      217
                     variables with only upper bounds:        0
Total number of equality constraints.................:      402
Total number of inequality constraints...............:        0
        inequality constraints with only lower bounds:        0
   inequality constraints with lower and upper bounds:        0
        inequality constraints with only upper bounds:        0

iter    objective    inf_pr   inf_du lg(mu)  ||d||  lg(rg) alpha_du alpha_pr  ls
   0  0.0000000e+00 1.12e+00 2.02e-28  -1.0 0.00e+00    -  0.00e+00 0.00e+00   0
   1  2.2780332e-01 9.34e-01 1.08e+05  -1.0 1.58e+05    -  3.08e-01 1.85e-01h  1
   2  2.6010100e-01 9.20e-01 1.08e+05  -1.0 1.75e+05    -  5.13e-01 1.51e-02h  1
   3  1.1620635e+01 2.70e-01 4.20e+04  -1.0 1.76e+05    -  5.18e-01 9.90e-01h  1
   4  1.4057376e+01 3.32e-02 1.93e+03  -1.0 1.94e+04    -  8.00e-01 9.90e-01h  1
   5  1.4110065e+01 8.66e-04 3.29e+02  -1.0 9.56e+02    -  9.87e-01 9.90e-01h  1
   6  1.4124102e+01 4.21e-05 2.27e+01  -1.0 2.68e+02    -  9.90e-01 9.90e-01h  1
   7  1.4136773e+01 3.28e-05 8.40e+02  -1.7 2.50e+02    -  9.90e-01 9.90e-01h  1
   8  1.4110492e+01 1.48e-04 1.71e+07  -3.8 5.67e+02    -  1.00e+00 9.09e-01f  1
   9  1.4110498e+01 1.64e-07 3.11e+05  -3.8 2.10e-01    -  1.00e+00 1.00e+00h  1
In iteration 9, 31 Slacks too small, adjusting variable bounds
iter    objective    inf_pr   inf_du lg(mu)  ||d||  lg(rg) alpha_du alpha_pr  ls
  10  1.4110497e+01 2.47e-11 2.05e+09  -3.8 1.21e-02    -  1.00e+00 1.00e+00h  1
  11  1.4110497e+01 6.36e-12 9.51e-04  -3.8 1.80e-06    -  1.00e+00 1.00e+00h  1
  12  1.4110347e+01 2.20e-12 1.84e+06  -9.0 2.95e+00    -  1.00e+00 9.99e-01F  1
  13  1.4110347e+01 5.15e-12 2.29e-10  -9.0 1.79e-05    -  1.00e+00 1.00e+00h  1

Number of Iterations....: 13

                                   (scaled)                 (unscaled)
Objective...............:   1.4110346834840518e+01    1.4110346834840518e+01
Dual infeasibility......:   2.2919266484677792e-10    2.2919266484677792e-10
Constraint violation....:   5.1452175853228255e-12    5.1452175853228255e-12
Complementarity.........:   9.0909107533933093e-10    9.0909107533933093e-10
Overall NLP error.......:   1.0851509235543658e-10    9.0909107533933093e-10


Number of objective function evaluations             = 15
Number of objective gradient evaluations             = 14
Number of equality constraint evaluations            = 15
Number of inequality constraint evaluations          = 0
Number of equality constraint Jacobian evaluations   = 14
Number of inequality constraint Jacobian evaluations = 0
Number of Lagrangian Hessian evaluations             = 13
Total CPU secs in IPOPT (w/o function evaluations)   =      0.033
Total CPU secs in NLP function evaluations           =      0.278

EXIT: Optimal Solution Found.
